;; Mutation-Based Equivalence Benchmark
;; Source:     AutomatArk / instance13565.smt2
;; Mutations:  intersect_no_digits4, literal_char_inc, literal_char_inc
;; Status:     sat
;;
;; Original regex vs mutated regex
;; Equivalence check: unsat ⟺ L(R1) = L(R2)

(set-info :smt-lib-version 2.6)
(set-info :category "mutation")
(set-info :status sat)
(set-logic QF_S)

(declare-const x String)

;; R1: original
;; R2: mutated (intersect_no_digits4, literal_char_inc, literal_char_inc)
(assert
  (str.in_re x
    (re.union (re.inter (re.++ (re.union (str.to_re "19") (str.to_re "20")) (re.range "0" "9") (re.range "0" "9") (re.union (str.to_re "-") (str.to_re "/") (str.to_re ".")) (re.union (re.range "1" "9") (re.++ (str.to_re "0") (re.range "1" "9")) (re.++ (str.to_re "1") (re.union (str.to_re "0") (str.to_re "1") (str.to_re "2")))) (re.union (str.to_re "-") (str.to_re " ") (str.to_re "/") (str.to_re ".")) (re.union (re.range "1" "9") (re.++ (str.to_re "0") (re.range "1" "9")) (re.++ (re.union (str.to_re "1") (str.to_re "2")) (re.range "0" "9")) (re.++ (str.to_re "3") (re.union (str.to_re "0") (str.to_re "1")))) (str.to_re "\u{a}")) (re.comp (re.++ (re.union (str.to_re "1:") (str.to_re "20")) (re.range "0" "9") (re.range "0" "9") (re.union (str.to_re "-") (str.to_re "/") (str.to_re ".")) (re.union (re.range "1" "9") (re.++ (str.to_re "0") (re.range "1" "9")) (re.++ (str.to_re "1") (re.union (str.to_re "0") (str.to_re "2") (str.to_re "2")))) (re.union (str.to_re "-") (str.to_re " ") (str.to_re "/") (str.to_re ".")) (re.union (re.range "1" "9") (re.++ (str.to_re "0") (re.range "1" "9")) (re.++ (re.union (str.to_re "1") (str.to_re "2")) (re.range "0" "9")) (re.inter (re.++ (str.to_re "3") (re.union (str.to_re "0") (str.to_re "1"))) (re.comp (re.++ re.all ((_ re.loop 4 4) (re.range "0" "9")) re.all)))) (str.to_re "\u{a}")))) (re.inter (re.comp (re.++ (re.union (str.to_re "19") (str.to_re "20")) (re.range "0" "9") (re.range "0" "9") (re.union (str.to_re "-") (str.to_re "/") (str.to_re ".")) (re.union (re.range "1" "9") (re.++ (str.to_re "0") (re.range "1" "9")) (re.++ (str.to_re "1") (re.union (str.to_re "0") (str.to_re "1") (str.to_re "2")))) (re.union (str.to_re "-") (str.to_re " ") (str.to_re "/") (str.to_re ".")) (re.union (re.range "1" "9") (re.++ (str.to_re "0") (re.range "1" "9")) (re.++ (re.union (str.to_re "1") (str.to_re "2")) (re.range "0" "9")) (re.++ (str.to_re "3") (re.union (str.to_re "0") (str.to_re "1")))) (str.to_re "\u{a}"))) (re.++ (re.union (str.to_re "1:") (str.to_re "20")) (re.range "0" "9") (re.range "0" "9") (re.union (str.to_re "-") (str.to_re "/") (str.to_re ".")) (re.union (re.range "1" "9") (re.++ (str.to_re "0") (re.range "1" "9")) (re.++ (str.to_re "1") (re.union (str.to_re "0") (str.to_re "2") (str.to_re "2")))) (re.union (str.to_re "-") (str.to_re " ") (str.to_re "/") (str.to_re ".")) (re.union (re.range "1" "9") (re.++ (str.to_re "0") (re.range "1" "9")) (re.++ (re.union (str.to_re "1") (str.to_re "2")) (re.range "0" "9")) (re.inter (re.++ (str.to_re "3") (re.union (str.to_re "0") (str.to_re "1"))) (re.comp (re.++ re.all ((_ re.loop 4 4) (re.range "0" "9")) re.all)))) (str.to_re "\u{a}"))))))

(check-sat)
(exit)
